814,474
654,459
707,393
893,194
366,635
981,406
494,501
539,452
1137,258
914,639
334,229
415,448
830,700
707,419
518,726
742,791
814,338
937,489
826,511
178,485
617,605
385,452
681,-104
600,566
891,406
1055,596
